Water Network: ../data/d4_Sample_input_triple_hanoi.dat 

*******************************************************************************
*******************************************************************************

gurobi solver outputs:

Gurobi 12.0.1: Set parameter LogToConsole to value 1
  tech:outlev = 1
Set parameter Presolve to value 1
  pre:solve = 1
Set parameter TimeLimit to value 3600
  lim:time = 3600
  alg:iisfind = 1
Set parameter IISMethod to value 0
  alg:iismethod = 0
  alg:iisforce = 1
Set parameter NumericFocus to value 1
  alg:numericfocus = 1
  cvt:socp = 2
Set parameter Method to value 4
  alg:method = 4
Set parameter NodeMethod to value 1
  mip:nodemethod = 1
Set parameter ConcurrentMethod to value 3
  alg:concurrentmethod = 3
Set parameter NonConvex to value 2
  qp:nonconvex = 2
Set parameter VarBranch to value 0
  mip:varbranch = 0
Set parameter OBBT to value 1
  mip:obbt = 1
  alg:start = 1
Set parameter FeasibilityTol to value 1e-06
  alg:feastol = 1e-06
Set parameter InfUnbdInfo to value 1
Gurobi Optimizer version 12.0.1 build v12.0.1rc0 (linux64 - "Debian GNU/Linux 12 (bookworm)")

CPU model: Intel(R) Xeon(R) Gold 6130 CPU @ 2.10GHz, instruction set [SSE2|AVX|AVX2|AVX512]
Thread count: 32 physical cores, 32 logical processors, using up to 32 threads

Non-default parameters:
TimeLimit  3600
Method  4
ConcurrentMethod  3
NodeMethod  1
OBBT  1
VarBranch  0
IISMethod  0
InfUnbdInfo  1
NonConvex  2
NumericFocus  1
Presolve  1

Optimize a model with 276 rows, 1116 columns and 1143 nonzeros
Model fingerprint: 0x556ccd20
Model has 85 simple general constraints
  85 ABS
Model has 85 general nonlinear constraints (1105 nonlinear terms)
Variable types: 1116 continuous, 0 integer (0 binary)
Coefficient statistics:
  Matrix range     [3e-05, 1e+00]
  Objective range  [5e+01, 3e+02]
  Bounds range     [1e+00, 3e+05]
  RHS range        [1e+00, 4e+03]
Presolve model has 85 nlconstr
Added 1275 variables to disaggregate expressions.
Presolve added 239 rows and 148 columns
Presolve time: 0.30s
Presolved: 4000 rows, 2540 columns, 9356 nonzeros
Presolved model has 170 SOS constraint(s)
Presolved model has 595 bilinear constraint(s)
Presolved model has 85 nonlinear constraint(s)

Solving non-convex MINLP

Variable types: 2370 continuous, 170 integer (170 binary)
  NLP heuristic elapsed time = 5.06s
Deterministic concurrent LP optimizer: primal and dual simplex
Showing primal log only...


Root simplex log...

Iteration    Objective       Primal Inf.    Dual Inf.      Time
       0    5.4405401e+06   1.618121e+06   3.028919e+08      9s
     464    5.4405401e+06   0.000000e+00   0.000000e+00      9s
Concurrent spin time: 0.08s

Solved with primal simplex
     464    5.4405401e+06   0.000000e+00   0.000000e+00     10s

Use crossover to convert LP symmetric solution to basic solution...

Root crossover log...

       0 DPushes remaining with DInf 0.0000000e+00                10s

     212 PPushes remaining with PInf 0.0000000e+00                10s
       0 PPushes remaining with PInf 0.0000000e+00                10s

  Push phase complete: Pinf 0.0000000e+00, Dinf 1.2212453e-15     10s


Root simplex log...

Iteration    Objective       Primal Inf.    Dual Inf.      Time
     706    5.4405401e+06   0.000000e+00   0.000000e+00     10s
     706    5.4405401e+06   0.000000e+00   0.000000e+00     10s

Root relaxation: objective 5.440540e+06, 706 iterations, 1.65 seconds (0.01 work units)

    Nodes    |    Current Node    |     Objective Bounds      |     Work
 Expl Unexpl |  Obj  Depth IntInf | Incumbent    BestBd   Gap | It/Node Time

     0     0 5440540.10    0  170          - 5440540.10      -     -   10s
     0     0 5440540.10    0  260          - 5440540.10      -     -   11s
     0     0 5440540.10    0  188          - 5440540.10      -     -   17s
     0     0 5440540.10    0  204          - 5440540.10      -     -   19s
     0     0 5440540.10    0  172          - 5440540.10      -     -   21s
     0     0 5784159.93    0  262          - 5784159.93      -     -   22s
     0     0 6501223.60    0  171          - 6501223.60      -     -   25s
     0     0 6501223.60    0  183          - 6501223.60      -     -   25s
     0     0 6501223.60    0  249          - 6501223.60      -     -   26s
     0     0 6501223.60    0  237          - 6501223.60      -     -   26s
     0     0 6501223.60    0  249          - 6501223.60      -     -   28s
     0     0 6501223.60    0  265          - 6501223.60      -     -   28s
     0     0 6501223.60    0  230          - 6501223.60      -     -   30s
     0     0 6501223.60    0  232          - 6501223.60      -     -   31s
     0     0 6501223.60    0  156          - 6501223.60      -     -   33s
     0     0 6501223.60    0  180          - 6501223.60      -     -   34s
     0     0 6501223.60    0  162          - 6501223.60      -     -   36s
     0     0 6501223.60    0  194          - 6501223.60      -     -   36s
     0     0 6501223.60    0  151          - 6501223.60      -     -   37s
     0     0 6501223.60    0  200          - 6501223.60      -     -   38s
     0     0 6501223.60    0  160          - 6501223.60      -     -   39s
     0     0 6501223.60    0  179          - 6501223.60      -     -   62s
  NLP heuristic elapsed time = 5.28s
  NLP heuristic elapsed time = 10.06s
     0     2 6501223.60    0  179          - 6501223.60      -     -  107s
     7    12 6560662.02    3  171          - 6542752.32      -   143  110s
    75   159 9532986.52    7  204          - 6900825.62      -   108  119s
   214   218 1.1308e+07    9  154          - 6998066.12      -   103  121s
   418   350 9973472.70   13  230          - 7102960.60      -   127  127s
   618   498 1.2268e+07   16  219          - 7102960.60      -   136  132s
   809   623 1.2403e+07   18  203          - 7102960.60      -   139  137s
   894   688 1.2506e+07   19  203          - 7102960.60      -   142  140s
  1086   813 1.4407e+07   23  183          - 7109648.10      -   145  146s
  1263   874 infeasible   25               - 7779778.38      -   153  152s
  1329   906 1.4697e+07   27  220          - 7779778.38      -   158  155s
  1526  1001 1.5729e+07   29  221          - 7942511.52      -   160  319s
  1618  1059 1.6726e+07   30  223          - 7942511.52      -   160  379s
  1712  1134 1.7321e+07   32  232          - 7998981.73      -   162  412s
  1811  1196 infeasible   33               - 7998981.73      -   161  445s
  1899  1251 1.7602e+07   33  227          - 7998981.73      -   161  463s
  1998  1309 1.7640e+07   34  225          - 7998981.73      -   162  486s
H 2009  1309                    2.041980e+07 7998981.73  60.8%   162  487s
  2076  1334 infeasible   35      2.0420e+07 7998981.73  60.8%   161  507s
  2111  1386 1.9278e+07   36  221 2.0420e+07 7998981.73  60.8%   162  521s
  2211  1412 infeasible   37      2.0420e+07 8338833.85  59.2%   162  535s
  2261  1482 infeasible   18      2.0420e+07 8338833.85  59.2%   161  544s
  2379  1539 1.1508e+07   20  238 2.0420e+07 8338833.85  59.2%   160  554s
  2484  1611 infeasible   21      2.0420e+07 8388417.32  58.9%   158  564s
  2608  1667 1.4072e+07   15  207 2.0420e+07 8388417.32  58.9%   159  572s
  2742  1724 infeasible   19      2.0420e+07 8388417.32  58.9%   156  580s
  2889  1775 1.7059e+07   23  238 2.0420e+07 8388454.26  58.9%   154  590s
  3012  1810 infeasible   27      2.0420e+07 8394074.96  58.9%   154  602s
  3099  1890 1.9397e+07   28  244 2.0420e+07 8502228.45  58.4%   154  613s
  3255  1995 2.0161e+07   32  193 2.0420e+07 8502228.45  58.4%   153  621s
  3434  2047     cutoff   37      2.0420e+07 8502228.45  58.4%   151  630s
  3590  2114     cutoff   36      2.0420e+07 8913546.20  56.3%   150  638s
  3775  2172 1.3071e+07   16  252 2.0420e+07 8966356.67  56.1%   150  650s
  3907  2268 infeasible   21      2.0420e+07 8966356.67  56.1%   149  681s
  4123  2350 infeasible   26      2.0420e+07 8966356.67  56.1%   150  691s
  4333  2486 1.8969e+07   30  198 2.0420e+07 9059449.08  55.6%   148  700s
  4558  2487 1.8501e+07   46   82 2.0420e+07 9064896.97  55.6%   148  713s
  NLP heuristic elapsed time = 5.09s
  NLP heuristic elapsed time = 10.07s
  NLP heuristic elapsed time = 15.04s
  4559  2488 1.4854e+07   20   82 2.0420e+07 9064896.97  55.6%   148  733s
  4560  2488 1.6826e+07   39    0 2.0420e+07 9064896.97  55.6%   148  763s
  4561  2489 1.3050e+07   27    0 2.0420e+07 9064896.97  55.6%   148  767s
  4563  2490 1.7434e+07   40    0 2.0420e+07 9064896.97  55.6%   147  774s
  4564  2491 1.7294e+07   32    0 2.0420e+07 9064896.97  55.6%   147  859s
  NLP heuristic elapsed time = 5.09s
  NLP heuristic elapsed time = 10.03s
  NLP heuristic elapsed time = 15.00s
  NLP heuristic elapsed time = 20.06s
  NLP heuristic elapsed time = 25.08s
  NLP heuristic elapsed time = 30.01s
  NLP heuristic elapsed time = 35.16s
  NLP heuristic elapsed time = 40.03s
  NLP heuristic elapsed time = 45.11s
  NLP heuristic elapsed time = 50.04s
  NLP heuristic elapsed time = 55.16s
  4565  2492 1.2409e+07   22    0 2.0420e+07 9064896.97  55.6%   147  938s
  4566  2495 9064896.97   16  171 2.0420e+07 9064896.97  55.6%   148  942s
  4572  2505 1.0595e+07   18  134 2.0420e+07 9064896.97  55.6%   148  945s
  4596  2545 1.2642e+07   20  144 2.0420e+07 9064896.97  55.6%   147  953s
  4628  2567 1.2910e+07   21  156 2.0420e+07 9064896.97  55.6%   147  955s
  4660  2685 1.2910e+07   22  155 2.0420e+07 9064896.97  55.6%   147  961s
  4789  2733 1.3232e+07   25  157 2.0420e+07 9064896.97  55.6%   145  967s
  4910  2763 1.3208e+07   27  144 2.0420e+07 9064896.97  55.6%   144 1125s
  4998  2783 1.3736e+07   29  158 2.0420e+07 9064896.97  55.6%   144 1149s
  5052  2840 1.3902e+07   30  141 2.0420e+07 9064896.97  55.6%   143 1164s
  5147  2864 1.3909e+07   31  142 2.0420e+07 9064896.97  55.6%   143 1207s
  5216  2885 1.4714e+07   33  161 2.0420e+07 9064896.97  55.6%   143 1219s
  5276  2908 1.4288e+07   33  157 2.0420e+07 9064896.97  55.6%   144 1230s
  5327  2961 1.4406e+07   34  156 2.0420e+07 9064896.97  55.6%   143 1238s
  5407  2994 infeasible   36      2.0420e+07 9064896.97  55.6%   143 1246s
  5491  3026 1.5133e+07   37  183 2.0420e+07 9064896.97  55.6%   144 1254s
  5513  3019 1.4294e+07   33  132 2.0420e+07 9064896.97  55.6%   144 1255s
  5571  3068 1.5518e+07   39  214 2.0420e+07 9064896.97  55.6%   144 1262s
  5658  3117 1.6606e+07   41  203 2.0420e+07 9064896.97  55.6%   143 1267s
  5748  3164 1.6712e+07   42  217 2.0420e+07 9064896.97  55.6%   143 1272s
  5843  3222 1.7151e+07   43  209 2.0420e+07 9064896.97  55.6%   142 1278s
  5940  3273 1.7758e+07   44  207 2.0420e+07 9064896.97  55.6%   141 1283s
  6044  3265 1.8055e+07   45  213 2.0420e+07 9064896.97  55.6%   140 1299s
  6080  3332 1.7922e+07   45  220 2.0420e+07 9064896.97  55.6%   140 1305s
  6193  3396 1.7990e+07   46  214 2.0420e+07 9064896.97  55.6%   139 1311s
  6317  3463 1.8290e+07   48  216 2.0420e+07 9064896.97  55.6%   138 1317s
  6461  3529 1.8109e+07   50  221 2.0420e+07 9064896.97  55.6%   136 1324s
  6593  3588 1.9562e+07   52  179 2.0420e+07 9064896.97  55.6%   135 1334s
  6724  3671 1.9783e+07   54  104 2.0420e+07 9064896.97  55.6%   134 1345s
  6871  3772 1.9675e+07   56  126 2.0420e+07 9064896.97  55.6%   133 1353s
  7037  3864 1.9986e+07   59  161 2.0420e+07 9064896.97  55.6%   132 1365s
  7202  3954 2.0100e+07   61  132 2.0420e+07 9064896.97  55.6%   131 1380s
  7373  4068 2.0083e+07   63  152 2.0420e+07 9064896.97  55.6%   130 1395s
  7560  4214 2.0155e+07   65  152 2.0420e+07 9064896.97  55.6%   128 1404s
  7787  4204 2.0179e+07   69  152 2.0420e+07 9064896.97  55.6%   126 1432s
  7866  4421 2.0177e+07   69  152 2.0420e+07 9064896.97  55.6%   125 1441s
  8128  4559 2.0215e+07   72  144 2.0420e+07 9064896.97  55.6%   123 1451s
* 8349  4079             198    2.004083e+07 9064896.97  54.8%   120 1451s
* 8350  3960             198    2.004083e+07 9064896.97  54.8%   120 1452s
* 8352  3847             198    2.004083e+07 9064896.97  54.8%   120 1452s
* 8353  3740             198    2.004083e+07 9064896.97  54.8%   120 1452s
* 8355  3637             197    2.004083e+07 9064896.97  54.8%   120 1452s
* 8356  3541             197    2.004082e+07 9064896.97  54.8%   120 1452s
  8395  3607     cutoff   76      2.0041e+07 9064896.97  54.8%   120 1462s
  8650  3717 1.2161e+07   31  188 2.0041e+07 9064896.97  54.8%   119 1473s
  8884  3855 1.4906e+07   36  256 2.0041e+07 9064896.97  54.8%   118 1485s
  9120  3866 1.7247e+07   41  205 2.0041e+07 9064896.97  54.8%   117 1502s
  9216  4102 1.7644e+07   44  202 2.0041e+07 9064896.97  54.8%   116 1520s
  9504  4143 1.8352e+07   50  206 2.0041e+07 9064896.97  54.8%   115 1539s
  9651  4280 1.8434e+07   51  217 2.0041e+07 9064896.97  54.8%   114 1566s
  9841  4398 1.8463e+07   52  214 2.0041e+07 9064896.97  54.8%   112 1605s
 10034  4717 1.8800e+07   56  195 2.0041e+07 9064896.97  54.8%   111 1624s
 10437  5120 1.9114e+07   65  182 2.0041e+07 9064896.97  54.8%   109 1643s
 10906  5602 1.9209e+07   79  181 2.0041e+07 9064896.97  54.8%   105 1659s
*11265  3635             366    1.922974e+07 9064896.97  52.9%   103 1660s
*11266  3635             366    1.922974e+07 9064896.97  52.9%   103 1660s
*11269  3635             366    1.922974e+07 9064896.97  52.9%   103 1660s
 11436  3482 1.9220e+07   95  113 1.9230e+07 9064896.97  52.9%   102 1674s
*11751  3481             366    1.922974e+07 9064896.97  52.9%   102 1675s
 11858  3756 1.9220e+07  101   67 1.9230e+07 9064896.97  52.9%   101 1693s
 12215  4063 1.9221e+07  127   39 1.9230e+07 9064896.97  52.9%   101 1716s
 12612  4417 1.9222e+07  157    7 1.9230e+07 9064896.97  52.9%   101 1735s
 13006  4768 1.9226e+07  181    9 1.9230e+07 9064896.97  52.9%   100 1758s
 13423  5166 1.9228e+07  208   13 1.9230e+07 9064896.97  52.9%  99.2 1778s
 13861  5543 1.9229e+07  240    9 1.9230e+07 9064896.97  52.9%  98.2 1799s
 14324  5925 1.9230e+07  264    7 1.9230e+07 9064896.97  52.9%  97.3 1829s
 14804  6286 1.9230e+07  295    4 1.9230e+07 9064896.97  52.9%  96.4 1857s
 15305  6483 1.9230e+07  324    1 1.9230e+07 9064896.97  52.9%  95.5 1886s
*15323  6483             342    1.922974e+07 9064896.97  52.9%  95.4 1886s
 15582  6827     cutoff  342      1.9230e+07 9064896.97  52.9%  95.2 1914s
 16098  6889 1.3195e+07   35  220 1.9230e+07 9064896.97  52.9%  94.8 1947s
 16224  7001 1.5037e+07   40  213 1.9230e+07 9064896.97  52.9%  95.0 1985s
H16369  5261                    1.910577e+07 9064896.97  52.6%  96.0 1988s
H16386  4356                    1.893453e+07 9064896.97  52.1%  96.0 1988s
 16414  4544 1.8187e+07   45  205 1.8935e+07 9064896.97  52.1%  96.1 2011s
 16845  4718 1.8648e+07   49  177 1.8935e+07 9064896.97  52.1%  96.8 2040s
 17256  4970 1.1980e+07   30  204 1.8935e+07 9064896.97  52.1%  97.6 2067s
 17692  4990 1.7476e+07   45  236 1.8935e+07 9064896.97  52.1%  98.3 2102s
 17736  5009 1.7574e+07   46  247 1.8935e+07 9064896.97  52.1%  98.3 2137s
H17740  4607                    1.880197e+07 9064896.97  51.8%  98.3 2138s
 17781  4865 1.7663e+07   47  249 1.8802e+07 9064896.97  51.8%  98.4 2162s
 18231  5084     cutoff   54      1.8802e+07 9064896.97  51.8%  99.3 2199s
 18674  5270 1.4394e+07   37  238 1.8802e+07 9064896.97  51.8%   100 2235s
 19102  5476 1.8601e+07   46  221 1.8802e+07 9370761.29  50.2%   101 2284s
 19602  5721 1.8355e+07   47  208 1.8802e+07 9370761.29  50.2%   102 2326s
 20095  5960 1.7381e+07   40  212 1.8802e+07 9370761.29  50.2%   103 2365s
 20614  6240 1.2151e+07   31  181 1.8802e+07 9370761.29  50.2%   104 2413s
 21170  6521 1.8742e+07   43  172 1.8802e+07 9388822.53  50.1%   106 2466s
 21735  6797 1.3818e+07   36  255 1.8802e+07 9388822.53  50.1%   107 2525s
 22295  7134 1.8591e+07   50  252 1.8802e+07 9388822.58  50.1%   109 2577s
 22958  7390 1.6850e+07   38  215 1.8802e+07 9388822.58  50.1%   110 2630s
 23626  7708 1.8536e+07   45  198 1.8802e+07 9741730.47  48.2%   110 2683s
 24207  7708 1.2294e+07   33  186 1.8802e+07 9866669.59  47.5%   112 2686s
 24322  8111 1.3846e+07   36  221 1.8802e+07 9866669.59  47.5%   112 2749s
 24883  8111 1.5697e+07   38  205 1.8802e+07 9866669.59  47.5%   113 2750s
 25047  8514 1.6274e+07   43  241 1.8802e+07 9866669.59  47.5%   113 2814s
 25814  8883     cutoff   49      1.8802e+07 9866669.59  47.5%   114 2874s
 26619  9178 1.8085e+07   46  240 1.8802e+07 9866669.59  47.5%   115 2937s
 27378  9602 1.7708e+07   44  177 1.8802e+07 9868342.24  47.5%   116 2999s
 28192  9602 1.2771e+07   33  209 1.8802e+07 9872883.87  47.5%   117 3001s
 28206 10060 1.1628e+07   30  191 1.8802e+07 9872883.87  47.5%   118 3059s
 29030 10530 1.6202e+07   34  212 1.8802e+07 9983315.63  46.9%   119 3118s
 29926 10925 1.8484e+07   39  153 1.8802e+07 1.0033e+07  46.6%   120 3184s
 30307 10925 infeasible   42      1.8802e+07 1.0122e+07  46.2%   121 3185s
 30877 11359 1.8653e+07   43  163 1.8802e+07 1.0248e+07  45.5%   121 3264s
 31865 11820 1.8659e+07   46  154 1.8802e+07 1.0312e+07  45.2%   122 3351s
 32828 12015     cutoff   48      1.8802e+07 1.0379e+07  44.8%   123 3444s
 33239 12015 1.3148e+07   30  181 1.8802e+07 1.0379e+07  44.8%   124 3446s
 33285 12242     cutoff   47      1.8802e+07 1.0379e+07  44.8%   124 3550s
H33380 12231                    1.879503e+07 1.0380e+07  44.8%   124 3553s
 33738 12504     cutoff   48      1.8795e+07 1.0380e+07  44.8%   125 3612s

Explored 34211 nodes (4290274 simplex iterations) in 3612.67 seconds (17.62 work units)
Thread count was 32 (of 32 available processors)

Solution count 10: 1.8795e+07 1.8802e+07 1.89345e+07 ... 2.00408e+07

Time limit reached
Best objective 1.879503097192e+07, best bound 1.038005217598e+07, gap 44.7724%
Gurobi 12.0.1: time limit, feasible solution; objective 18795030.97
4.29027e+06 simplex iterations
34211 branching nodes
absmipgap=8.41498e+06, relmipgap=0.447724
*******************************************************************************

q [*,*] (tr)
:     1        2         3         4         5         6         7         8 :=
2   15886       .         .         .         .         .         .        .
3     .     5055.53       .         .         .         .         .        .
4     .         .     2025.82       .         .         .         .        .
5     .         .         .     1989.71       .         .         .        .
6     .         .         .         .     1788.32       .         .        .
7     .         .         .         .         .     1509.15       .        .
8     .         .         .         .         .         .     1134.15      .
9     .         .         .         .         .         .         .     981.375
19
      .         .     1187.03       .         .         .         .        .
20
      .         .     1842.69       .         .         .         .        .
33
      .     5291.64       .         .         .         .         .        .
63
      .     5291.64       .         .         .         .         .        .

:       9        10        11       12        14         15        16       :=
10   835.542      .         .        .        .           .         .
11      .      555.54       .        .        .           .         .
12      .         .      416.66      .        .           .         .
13      .         .         .     261.11      .           .         .
14      .      134.169      .        .        .           .         .
15      .         .         .        .     -36.6641       .         .
16      .         .         .        .        .       -114.441      .
27      .         .         .        .        .           .      355.921

:      17        18       19         20        21        23        24    25  :=
16   556.473      .         .         .         .         .        .      .
17      .      796.75       .         .         .         .        .      .
18      .         .     1170.36       .         .         .        .      .
21      .         .         .      393.055      .         .        .      .
22      .         .         .         .      134.722      .        .      .
23      .         .         .     1095.47       .         .        .      .
24      .         .         .         .         .      271.855     .      .
25      .         .         .         .         .         .      44.078   .
28      .         .         .         .         .      533.333     .      .
32      .         .         .         .         .         .        .      0

:      26        27        28        29        30         32         33      :=
25   3.14402      .         .         .         .          .          .
26    .        253.144      .         .         .          .          .
29    .           .      452.778      .         .          .          .
30    .           .         .      352.778      .          .          .
31    .           .         .         .      252.778   -223.611       .
34    .           .         .         .         .          .      2225.86
49    .           .         .         .         .          .       630.554
50    .           .         .         .         .          .      2199.12

:      34        35        36       37       38        39        40        41 :=
35   2189.75       .         .        .        .         .        .         .
36       .     1988.36       .        .        .         .        .         .
37       .         .     1709.2       .        .         .        .         .
38       .         .         .    1334.2       .         .        .         .
39       .         .         .        .    1181.42       .        .         .
40       .         .         .        .        .     1035.59      .         .
41       .         .         .        .        .         .     555.54       .
42       .         .         .        .        .         .        .      416.66
44       .         .         .        .        .         .     334.214      .

:      42       44        45         46      47     48        49         50  :=
43   261.11      .        .         .         .      .         .          .
45      .     163.381     .         .         .      .         .          .
46      .        .      85.6037     .         0      .         .          .
47      .        .        .         .         .   240.277      .          .
48      .        .        .         .         .      .      613.888       .
51      .        .        .         .         .      .         .       393.055
53      .        .        .         .         .      .         .      1451.89
57      .        .        .       -0.507341   .      .         .          .

:      51        53        54        55        56         57        58      :=
52   134.722      .         .         .         .          .        .
54      .      997.853      .         .         .          .        .
55      .         .      770.076      .     -353.284       .        .
56      .         .         .         .         .      -103.284     .
58      .      163.763      .         .         .          .        .
59      .         .         .         .         .          .      83.208
62      .         .         .      369.57       .          .        .

:      59         60        62        63        64        65        66       :=
60   -16.792       .         .          .         .         .         .
61      .      -116.792   145.959       .         .         .         .
64      .          .         .      2062.48       .         .         .
65      .          .         .          .     2026.37       .         .
66      .          .         .          .         .     1824.98       .
67      .          .         .          .         .         .     1545.82
79      .          .         .       974.74       .         .         .
80      .          .         .      2018.31       .         .         .

:      67        68        69        70        71       72         74        :=
68   1170.82       .        .         .         .        .      .
69       .     1018.04      .         .         .        .      .
70       .         .     872.206      .         .        .      .
71       .         .        .      555.54       .        .      .
72       .         .        .         .      416.66      .      .
73       .         .        .         .         .     261.11    .
74       .         .        .      170.833      .        .      .
75       .         .        .         .         .        .     6.3555e-05

:       75        76        77        78        79         80        81      :=
76   -77.7769      .      344.186      .         .          .         .
77      .          .         .      584.463      .          .         .
78      .          .         .         .      958.074       .         .
81      .          .         .         .         .       393.055      .
82      .          .         .         .         .          .      134.722
83      .          .         .         .         .      1271.09       .
87      .       180.298      .         .         .          .         .

:      83        84        85         86        87        88        89      :=
84   752.359      .         .          .        .          .        .
85      .      524.582      .      -172.479     .          .        .
86      .         .         .          .      77.5212      .        .
88   228.451      .         .          .        .          .        .
89      .         .         .          .        .       147.896     .
90      .         .         .          .        .          .      47.896
92      .         .      304.882       .        .          .        .

:      90        92       :=
91   -52.104   81.2706
;

total_cost using gurobi: 18795030.97192061
solve_time using gurobi: 3613.2068130000002 

*******************************************************************************

